<number of tasks>
50

<cycle time>
1000

<order strength>
0.603


<task times>
1 65
2 138
3 76
4 103
5 167
6 248
7 95
8 151
9 31
10 121
11 143
12 68
13 252
14 97
15 188
16 95
17 117
18 48
19 32
20 114
21 186
22 94
23 146
24 24
25 127
26 210
27 50
28 114
29 144
30 86
31 108
32 252
33 143
34 303
35 185
36 100
37 165
38 135
39 306
40 82
41 105
42 47
43 244
44 154
45 48
46 225
47 135
48 115
49 21
50 111

<precedence relations>
1,10
2,7
2,8
3,6
3,7
3,9
4,9
4,10
5,13
6,19
6,30
6,32
6,36
6,38
7,11
8,11
9,11
10,11
11,12
11,13
11,14
12,15
12,16
12,19
13,18
13,20
13,43
14,17
14,18
15,21
15,22
15,26
16,25
16,26
17,26
18,23
18,29
18,46
19,44
20,23
20,24
20,36
21,28
21,29
21,34
21,36
23,30
23,39
23,47
25,27
25,31
26,28
26,31
26,35
26,38
27,32
27,34
27,35
28,33
28,42
30,35
31,36
31,43
32,39
33,40
33,43
34,38
34,40
35,37
36,37
36,40
37,41
37,42
37,44
38,43
38,47
38,49
38,50
39,41
40,45
40,46
44,49
46,48
46,50

<end>
